2812,3177
635,8078
3861,2992
6431,926
2257,4510
632,7476
137,9301
148,8460
5282,634
2560,6312
88,5898
5576,4863
7364,5600
6388,986
5619,7374
5929,681
778,395
2684,3808
8160,710
8617,5512
9124,1216
7561,2110
6648,7602
6507,3541
860,7560
4212,8556
6432,1437
3627,8708
8739,5963
1626,1674
9890,1790
1414,4474
4787,608
7099,5534
6336,8376
229,3990
5146,5275
2033,2905
7989,3846
9387,6840
8400,626
9348,3155
928,7016
2520,9061
709,273
7943,1951
6431,5929
2928,2048
3429,1878
9504,611
1755,104
4379,7945
3722,2669
8323,9560
6462,7717
9105,5623
4766,682
7959,1551
193,9347
5149,2635
1330,8091
427,4826
5994,4116
9752,2159
3005,3493
2649,7389
5904,1982
9339,3610
7585,3778
9474,1221
1295,6946
1107,165
5710,4232
7144,3424
9380,8359

9528
29116
3594
31808
20013
4330
13455
1468
7892
10980
